
  32    1
  10

   0   0  10 2 3 4 5 6 8 9 10 14 17 
   6   1   4 26 18 12 7 
   5   5   7 30 28 27 20 19 16 15 
   2   6   5 31 28 24 19 11 
   9   7   5 27 26 20 18 16 
  10   6   6 27 26 25 21 19 15 
   4   5   6 28 27 24 23 20 19 
   5   7   6 28 26 25 24 19 15 
   9   5   6 29 27 26 24 23 19 
   1   5   4 29 27 25 13 
  10   8   3 26 23 20 
   7   4   2 19 15 
   3   6   2 26 19 
   3   2   2 25 19 
   2   9   2 23 22 
   3   5   2 24 23 
   2   5   2 26 24 
   3   6   1 19 
   1  10   1 22 
  10   7   1 25 
   7  10   1 24 
   4   6   1 32
   9   6   1 32
   6   6   1 32
   5   5   1 32
   9   4   1 32
   1   9   1 32
  10  10   1 32
   7   5   1 32
   6   5   1 32
   6   5   1 32
   0   0   0 
